572 262
548 561
687 232
868 213
713 54
999 984
705 921
213 152
405 559
401 599
773 88
634 262
612 768
709 512
830 308
177 478
205 917
37 658
392 78
850 439
291 363
103 767
711 520
306 641
895 24
660 8
532 143
563 170
220 72
878 339
311 92
535 872
342 658
614 339
295 609
343 247
225 433
501 274
551 790
541 423
